\ENCODING=ISO-8859-1
\Problem name: IloCplex

Minimize
 obj: z(0) + z(1) + z(2) + 6.05 y(0,0) + 0.0999999999999996 y(8,0)
      + 0.0500000000000007 y(9,0) + 4.05 y(1,0,0) + 2.05 y(2,0,0)
      + 0.0500000000000007 y(3,0,0) + 0.0500000000000007 y(6,0,2)
      + 1.05 y(7,0,1) + 0.0499999999999998 y(4,3) + 2.05 y(5,4) + 1.05 o(0)
      + 4.05 o(1) + 2.05 o(2) + 6.05 o(3) + 5.05 o(4) + 8.05 o(5) + 4.05 o(6)
      + 7.05 o(7) + 10.05 o(8) + 4.05 o(9) + 1.05 o(10) + 2.05 o(11)
Subject To
 Um_Padrao#0:   x(0,0,0) + x(1,0,0) + x(2,0,0) <= 1
 Um_Padrao#1:   x(0,0,1) + x(1,0,1) + x(2,0,1) <= 1
 Um_Padrao#2:   x(0,0,2) + x(1,0,2) + x(2,0,2) <= 1
 Um_Padrao#3:   x(0,1,0) + x(1,1,0) + x(2,1,0) <= 1
 Um_Padrao#4:   x(0,1,1) + x(1,1,1) + x(2,1,1) <= 1
 Um_Padrao#5:   x(0,1,2) + x(1,1,2) + x(2,1,2) <= 1
 Um_Padrao#6:   x(0,2,0) + x(1,2,0) + x(2,2,0) <= 1
 Um_Padrao#7:   x(0,2,1) + x(1,2,1) + x(2,2,1) <= 1
 Um_Padrao#8:   x(0,2,2) + x(1,2,2) + x(2,2,2) <= 1
 Um_Padrao#9:   x(0,3,0) + x(1,3,0) + x(2,3,0) <= 1
 Um_Padrao#10:  x(0,3,1) + x(1,3,1) + x(2,3,1) <= 1
 Um_Padrao#11:  x(0,3,2) + x(1,3,2) + x(2,3,2) <= 1
 Um_Padrao#12:  x(0,4,0) + x(3,4,0) + x(4,4,0) + x(5,4,0) + x(6,4,0) <= 1
 Um_Padrao#13:  x(0,4,1) + x(3,4,1) + x(4,4,1) + x(5,4,1) + x(6,4,1) <= 1
 Um_Padrao#14:  x(0,4,2) + x(3,4,2) + x(4,4,2) + x(5,4,2) + x(6,4,2) <= 1
 Demanda#15:    5 x(1,0,0) + 2 x(2,0,0) + 5 x(1,0,1) + 2 x(2,0,1) + 5 x(1,0,2)
                + 2 x(2,0,2) + 5 x(1,1,0) + 2 x(2,1,0) + 5 x(1,1,1)
                + 2 x(2,1,1) + 5 x(1,1,2) + 2 x(2,1,2) + 5 x(1,2,0)
                + 2 x(2,2,0) + 5 x(1,2,1) + 2 x(2,2,1) + 5 x(1,2,2)
                + 2 x(2,2,2) + 5 x(1,3,0) + 2 x(2,3,0) + 5 x(1,3,1)
                + 2 x(2,3,1) + 5 x(1,3,2) + 2 x(2,3,2) + 10 x(3,4,0)
                + 7 x(4,4,0) + 4 x(5,4,0) + x(6,4,0) + 10 x(3,4,1) + 7 x(4,4,1)
                + 4 x(5,4,1) + x(6,4,1) + 10 x(3,4,2) + 7 x(4,4,2) + 4 x(5,4,2)
                + x(6,4,2) >= 5
 Demanda#16:    x(2,0,0) + x(2,0,1) + x(2,0,2) + x(2,1,0) + x(2,1,1) + x(2,1,2)
                + x(2,2,0) + x(2,2,1) + x(2,2,2) + x(2,3,0) + x(2,3,1)
                + x(2,3,2) + x(4,4,0) + 2 x(5,4,0) + 3 x(6,4,0) + x(4,4,1)
                + 2 x(5,4,1) + 3 x(6,4,1) + x(4,4,2) + 2 x(5,4,2) + 3 x(6,4,2)
                >= 10
 oi#17:         x(0,0,0) <= 0
 oi#18:         x(0,1,0) <= 0
 oi#19:         x(0,2,0) <= 0
 oi#20:         x(0,3,0) <= 0
 oi#21:         x(0,4,0) <= 0
 oi#22:         x(0,0,1) <= 0
 oi#23:         x(0,1,1) <= 0
 oi#24:         x(0,2,1) <= 0
 oi#25:         x(0,3,1) <= 0
 oi#26:         x(0,4,1) <= 0
 oi#27:         x(0,0,2) <= 0
 oi#28:         x(0,1,2) <= 0
 oi#29:         x(0,2,2) <= 0
 oi#30:         x(0,3,2) <= 0
 oi#31:         x(0,4,2) <= 0
 c33#32:        5 z(0) - x(0,0,0) - x(1,0,0) - x(2,0,0) - x(0,1,0) - x(1,1,0)
                - x(2,1,0) - x(0,2,0) - x(1,2,0) - x(2,2,0) - x(0,3,0)
                - x(1,3,0) - x(2,3,0) - x(0,4,0) - x(3,4,0) - x(4,4,0)
                - x(5,4,0) - x(6,4,0) >= 0
 c34#33:        5 z(1) - x(0,0,1) - x(1,0,1) - x(2,0,1) - x(0,1,1) - x(1,1,1)
                - x(2,1,1) - x(0,2,1) - x(1,2,1) - x(2,2,1) - x(0,3,1)
                - x(1,3,1) - x(2,3,1) - x(0,4,1) - x(3,4,1) - x(4,4,1)
                - x(5,4,1) - x(6,4,1) >= 0
 c35#34:        5 z(2) - x(0,0,2) - x(1,0,2) - x(2,0,2) - x(0,1,2) - x(1,1,2)
                - x(2,1,2) - x(0,2,2) - x(1,2,2) - x(2,2,2) - x(0,3,2)
                - x(1,3,2) - x(2,3,2) - x(0,4,2) - x(3,4,2) - x(4,4,2)
                - x(5,4,2) - x(6,4,2) >= 0
 c36#35:        x(0,0,0) + x(1,0,0) + x(2,0,0) - x(0,0,1) - x(1,0,1) - x(2,0,1)
                >= 0
 c37#36:        x(0,0,1) + x(1,0,1) + x(2,0,1) - x(0,0,2) - x(1,0,2) - x(2,0,2)
                >= 0
 c38#37:        x(0,1,0) + x(1,1,0) + x(2,1,0) - x(0,1,1) - x(1,1,1) - x(2,1,1)
                >= 0
 c39#38:        x(0,1,1) + x(1,1,1) + x(2,1,1) - x(0,1,2) - x(1,1,2) - x(2,1,2)
                >= 0
 c40#39:        x(0,2,0) + x(1,2,0) + x(2,2,0) - x(0,2,1) - x(1,2,1) - x(2,2,1)
                >= 0
 c41#40:        x(0,2,1) + x(1,2,1) + x(2,2,1) - x(0,2,2) - x(1,2,2) - x(2,2,2)
                >= 0
 c42#41:        x(0,3,0) + x(1,3,0) + x(2,3,0) - x(0,3,1) - x(1,3,1) - x(2,3,1)
                >= 0
 c43#42:        x(0,3,1) + x(1,3,1) + x(2,3,1) - x(0,3,2) - x(1,3,2) - x(2,3,2)
                >= 0
 c44#43:        x(0,4,0) + x(3,4,0) + x(4,4,0) + x(5,4,0) + x(6,4,0) - x(0,4,1)
                - x(3,4,1) - x(4,4,1) - x(5,4,1) - x(6,4,1) >= 0
 c45#44:        x(0,4,1) + x(3,4,1) + x(4,4,1) + x(5,4,1) + x(6,4,1) - x(0,4,2)
                - x(3,4,2) - x(4,4,2) - x(5,4,2) - x(6,4,2) >= 0
 _Estoque_1#45: o(0) + o(2) + o(6) <= 16
 _Estoque_1#46: o(0) + 2 o(1) + o(4) + o(7) + o(10) <= 28
 _Estoque_1#47: y(4,3) + o(2) + 2 o(3) + o(4) + o(5) + o(11) <= 25
 _Estoque_1#48: y(5,4) + o(5) + o(6) + o(7) + 2 o(8) + 2 o(9) + o(10) + o(11)
                <= 29
 _Estoque_2#49: y(0,0) + y(8,0) + y(9,0) + y(1,0,0) + y(2,0,0) + y(3,0,0)
                + y(6,0,2) + y(7,0,1) <= 30
 Integracao#50: y(0,0) + 2 y(8,0) + y(1,0,0) + y(2,0,0) + y(3,0,0) + y(6,0,2)
                + y(7,0,1) + y(4,3) + y(5,4) + o(0) + o(1) + o(2) + o(3) + o(4)
                + o(5) + o(6) + o(7) + o(8) - x(1,0,0) - x(2,0,0) - x(1,0,1)
                - x(2,0,1) - x(1,0,2) - x(2,0,2) - x(1,1,0) - x(2,1,0)
                - x(1,1,1) - x(2,1,1) - x(1,1,2) - x(2,1,2) - x(1,2,0)
                - x(2,2,0) - x(1,2,1) - x(2,2,1) - x(1,2,2) - x(2,2,2)
                - x(1,3,0) - x(2,3,0) - x(1,3,1) - x(2,3,1) - x(1,3,2)
                - x(2,3,2)  = 0
 Integracao#51: y(9,0) + o(9) + o(10) + o(11) - x(3,4,0) - x(4,4,0) - x(5,4,0)
                - x(6,4,0) - x(3,4,1) - x(4,4,1) - x(5,4,1) - x(6,4,1)
                - x(3,4,2) - x(4,4,2) - x(5,4,2) - x(6,4,2)  = 0
Bounds
 0 <= z(0) <= 1
 0 <= z(1) <= 1
 0 <= z(2) <= 1
 0 <= y(0,0) <= 10000000
 0 <= y(8,0) <= 10000000
 0 <= y(9,0) <= 10000000
 0 <= y(1,0,0) <= 10000000
 0 <= y(2,0,0) <= 10000000
 0 <= y(3,0,0) <= 10000000
 0 <= y(6,0,2) <= 10000000
 0 <= y(7,0,1) <= 10000000
 0 <= y(4,3) <= 10000000
 0 <= y(5,4) <= 10000000
 0 <= o(0) <= 10000000
 0 <= o(1) <= 10000000
 0 <= o(2) <= 10000000
 0 <= o(3) <= 10000000
 0 <= o(4) <= 10000000
 0 <= o(5) <= 10000000
 0 <= o(6) <= 10000000
 0 <= o(7) <= 10000000
 0 <= o(8) <= 10000000
 0 <= o(9) <= 10000000
 0 <= o(10) <= 10000000
 0 <= o(11) <= 10000000
 0 <= x(0,0,0) <= 1
 0 <= x(1,0,0) <= 1
 0 <= x(2,0,0) <= 1
 0 <= x(0,0,1) <= 1
 0 <= x(1,0,1) <= 1
 0 <= x(2,0,1) <= 1
 0 <= x(0,0,2) <= 1
 0 <= x(1,0,2) <= 1
 0 <= x(2,0,2) <= 1
 0 <= x(0,1,0) <= 1
 0 <= x(1,1,0) <= 1
 0 <= x(2,1,0) <= 1
 0 <= x(0,1,1) <= 1
 0 <= x(1,1,1) <= 1
 0 <= x(2,1,1) <= 1
 0 <= x(0,1,2) <= 1
 0 <= x(1,1,2) <= 1
 0 <= x(2,1,2) <= 1
 0 <= x(0,2,0) <= 1
 0 <= x(1,2,0) <= 1
 0 <= x(2,2,0) <= 1
 0 <= x(0,2,1) <= 1
 0 <= x(1,2,1) <= 1
 0 <= x(2,2,1) <= 1
 0 <= x(0,2,2) <= 1
 0 <= x(1,2,2) <= 1
 0 <= x(2,2,2) <= 1
 0 <= x(0,3,0) <= 1
 0 <= x(1,3,0) <= 1
 0 <= x(2,3,0) <= 1
 0 <= x(0,3,1) <= 1
 0 <= x(1,3,1) <= 1
 0 <= x(2,3,1) <= 1
 0 <= x(0,3,2) <= 1
 0 <= x(1,3,2) <= 1
 0 <= x(2,3,2) <= 1
 0 <= x(0,4,0) <= 1
 0 <= x(3,4,0) <= 1
 0 <= x(4,4,0) <= 1
 0 <= x(5,4,0) <= 1
 0 <= x(6,4,0) <= 1
 0 <= x(0,4,1) <= 1
 0 <= x(3,4,1) <= 1
 0 <= x(4,4,1) <= 1
 0 <= x(5,4,1) <= 1
 0 <= x(6,4,1) <= 1
 0 <= x(0,4,2) <= 1
 0 <= x(3,4,2) <= 1
 0 <= x(4,4,2) <= 1
 0 <= x(5,4,2) <= 1
 0 <= x(6,4,2) <= 1
Binaries
 z(0)  z(1)  z(2)  x(0,0,0)  x(1,0,0)  x(2,0,0)  x(0,0,1)  x(1,0,1)  x(2,0,1) 
 x(0,0,2)  x(1,0,2)  x(2,0,2)  x(0,1,0)  x(1,1,0)  x(2,1,0)  x(0,1,1) 
 x(1,1,1)  x(2,1,1)  x(0,1,2)  x(1,1,2)  x(2,1,2)  x(0,2,0)  x(1,2,0) 
 x(2,2,0)  x(0,2,1)  x(1,2,1)  x(2,2,1)  x(0,2,2)  x(1,2,2)  x(2,2,2) 
 x(0,3,0)  x(1,3,0)  x(2,3,0)  x(0,3,1)  x(1,3,1)  x(2,3,1)  x(0,3,2) 
 x(1,3,2)  x(2,3,2)  x(0,4,0)  x(3,4,0)  x(4,4,0)  x(5,4,0)  x(6,4,0) 
 x(0,4,1)  x(3,4,1)  x(4,4,1)  x(5,4,1)  x(6,4,1)  x(0,4,2)  x(3,4,2) 
 x(4,4,2)  x(5,4,2)  x(6,4,2) 
Generals
 y(0,0)  y(8,0)  y(9,0)  y(1,0,0)  y(2,0,0)  y(3,0,0)  y(6,0,2)  y(7,0,1) 
 y(4,3)  y(5,4)  o(0)  o(1)  o(2)  o(3)  o(4)  o(5)  o(6)  o(7)  o(8)  o(9) 
 o(10)  o(11) 
End
